(set-option :produce-unsat-cores true)

(set-logic QF_UF)
(declare-fun xa1 () Bool)
(declare-fun xa2 () Bool)
(declare-fun xa3 () Bool)
(declare-fun xa4 () Bool)
(declare-fun xa5 () Bool)
(declare-fun xb1 () Bool)
(declare-fun xb2 () Bool)
(declare-fun xb3 () Bool)
(declare-fun xb4 () Bool)
(declare-fun xb5 () Bool)
(declare-fun xc1 () Bool)
(declare-fun xc2 () Bool)
(declare-fun xc3 () Bool)
(declare-fun xc4 () Bool)
(declare-fun xc5 () Bool)
(declare-fun xd1 () Bool)
(declare-fun xd2 () Bool)
(declare-fun xd3 () Bool)
(declare-fun xd4 () Bool)
(declare-fun xd5 () Bool)
(declare-fun xe1 () Bool)
(declare-fun xe2 () Bool)
(declare-fun xe3 () Bool)
(declare-fun xe4 () Bool)
(declare-fun xe5 () Bool)
(assert (let ((.def_0 (not xe5))) (let ((.def_1 (=> xd5 .def_0))) (let ((.def_2 (or xd5 xe5))) (let ((.def_3 (not .def_2))) (let ((.def_4 (=> xc5 .def_3))) (let ((.def_5 (or xc5 xd5 xe5))) (let ((.def_6 (not .def_5))) (let ((.def_7 (=> xb5 .def_6))) (let ((.def_8 (or xb5 xc5 xd5 xe5))) (let ((.def_9 (not .def_8))) (let ((.def_10 (=> xa5 .def_9))) (let ((.def_11 (and .def_10 .def_7 .def_4 .def_1))) (let ((.def_12 (or xa5 xb5 xc5 xd5 xe5))) (let ((.def_13 (and .def_12 .def_11))) (let ((.def_14 (not xe4))) (let ((.def_15 (=> xd4 .def_14))) (let ((.def_16 (or xd4 xe4))) (let ((.def_17 (not .def_16))) (let ((.def_18 (=> xc4 .def_17))) (let ((.def_19 (or xc4 xd4 xe4))) (let ((.def_20 (not .def_19))) (let ((.def_21 (=> xb4 .def_20))) (let ((.def_22 (or xb4 xc4 xd4 xe4))) (let ((.def_23 (not .def_22))) (let ((.def_24 (=> xa4 .def_23))) (let ((.def_25 (and .def_24 .def_21 .def_18 .def_15))) (let ((.def_26 (or xa4 xb4 xc4 xd4 xe4))) (let ((.def_27 (and .def_26 .def_25))) (let ((.def_28 (not xe3))) (let ((.def_29 (=> xd3 .def_28))) (let ((.def_30 (or xd3 xe3))) (let ((.def_31 (not .def_30))) (let ((.def_32 (=> xc3 .def_31))) (let ((.def_33 (or xc3 xd3 xe3))) (let ((.def_34 (not .def_33))) (let ((.def_35 (=> xb3 .def_34))) (let ((.def_36 (or xb3 xc3 xd3 xe3))) (let ((.def_37 (not .def_36))) (let ((.def_38 (=> xa3 .def_37))) (let ((.def_39 (and .def_38 .def_35 .def_32 .def_29))) (let ((.def_40 (or xa3 xb3 xc3 xd3 xe3))) (let ((.def_41 (and .def_40 .def_39))) (let ((.def_42 (not xe2))) (let ((.def_43 (=> xd2 .def_42))) (let ((.def_44 (or xd2 xe2))) (let ((.def_45 (not .def_44))) (let ((.def_46 (=> xc2 .def_45))) (let ((.def_47 (or xc2 xd2 xe2))) (let ((.def_48 (not .def_47))) (let ((.def_49 (=> xb2 .def_48))) (let ((.def_50 (or xb2 xc2 xd2 xe2))) (let ((.def_51 (not .def_50))) (let ((.def_52 (=> xa2 .def_51))) (let ((.def_53 (and .def_52 .def_49 .def_46 .def_43))) (let ((.def_54 (or xa2 xb2 xc2 xd2 xe2))) (let ((.def_55 (and .def_54 .def_53))) (let ((.def_56 (not xe1))) (let ((.def_57 (=> xd1 .def_56))) (let ((.def_58 (or xd1 xe1))) (let ((.def_59 (not .def_58))) (let ((.def_60 (=> xc1 .def_59))) (let ((.def_61 (or xc1 xd1 xe1))) (let ((.def_62 (not .def_61))) (let ((.def_63 (=> xb1 .def_62))) (let ((.def_64 (or xb1 xc1 xd1 xe1))) (let ((.def_65 (not .def_64))) (let ((.def_66 (=> xa1 .def_65))) (let ((.def_67 (and .def_66 .def_63 .def_60 .def_57))) (let ((.def_68 (or xa1 xb1 xc1 xd1 xe1))) (let ((.def_69 (and .def_68 .def_67))) (let ((.def_70 (=> xe4 .def_0))) (let ((.def_71 (or xe4 xe5))) (let ((.def_72 (not .def_71))) (let ((.def_73 (=> xe3 .def_72))) (let ((.def_74 (or xe3 xe4 xe5))) (let ((.def_75 (not .def_74))) (let ((.def_76 (=> xe2 .def_75))) (let ((.def_77 (or xe2 xe3 xe4 xe5))) (let ((.def_78 (not .def_77))) (let ((.def_79 (=> xe1 .def_78))) (let ((.def_80 (and .def_79 .def_76 .def_73 .def_70))) (let ((.def_81 (or xe1 xe2 xe3 xe4 xe5))) (let ((.def_82 (and .def_81 .def_80))) (let ((.def_83 (not xd5))) (let ((.def_84 (=> xd4 .def_83))) (let ((.def_85 (or xd4 xd5))) (let ((.def_86 (not .def_85))) (let ((.def_87 (=> xd3 .def_86))) (let ((.def_88 (or xd3 xd4 xd5))) (let ((.def_89 (not .def_88))) (let ((.def_90 (=> xd2 .def_89))) (let ((.def_91 (or xd2 xd3 xd4 xd5))) (let ((.def_92 (not .def_91))) (let ((.def_93 (=> xd1 .def_92))) (let ((.def_94 (and .def_93 .def_90 .def_87 .def_84))) (let ((.def_95 (or xd1 xd2 xd3 xd4 xd5))) (let ((.def_96 (and .def_95 .def_94))) (let ((.def_97 (not xc5))) (let ((.def_98 (=> xc4 .def_97))) (let ((.def_99 (or xc4 xc5))) (let ((.def_100 (not .def_99))) (let ((.def_101 (=> xc3 .def_100))) (let ((.def_102 (or xc3 xc4 xc5))) (let ((.def_103 (not .def_102))) (let ((.def_104 (=> xc2 .def_103))) (let ((.def_105 (or xc2 xc3 xc4 xc5))) (let ((.def_106 (not .def_105))) (let ((.def_107 (=> xc1 .def_106))) (let ((.def_108 (and .def_107 .def_104 .def_101 .def_98))) (let ((.def_109 (or xc1 xc2 xc3 xc4 xc5))) (let ((.def_110 (and .def_109 .def_108))) (let ((.def_111 (not xb5))) (let ((.def_112 (=> xb4 .def_111))) (let ((.def_113 (or xb4 xb5))) (let ((.def_114 (not .def_113))) (let ((.def_115 (=> xb3 .def_114))) (let ((.def_116 (or xb3 xb4 xb5))) (let ((.def_117 (not .def_116))) (let ((.def_118 (=> xb2 .def_117))) (let ((.def_119 (or xb2 xb3 xb4 xb5))) (let ((.def_120 (not .def_119))) (let ((.def_121 (=> xb1 .def_120))) (let ((.def_122 (and .def_121 .def_118 .def_115 .def_112))) (let ((.def_123 (or xb1 xb2 xb3 xb4 xb5))) (let ((.def_124 (and .def_123 .def_122))) (let ((.def_125 (not xa5))) (let ((.def_126 (=> xa4 .def_125))) (let ((.def_127 (or xa4 xa5))) (let ((.def_128 (not .def_127))) (let ((.def_129 (=> xa3 .def_128))) (let ((.def_130 (or xa3 xa4 xa5))) (let ((.def_131 (not .def_130))) (let ((.def_132 (=> xa2 .def_131))) (let ((.def_133 (or xa2 xa3 xa4 xa5))) (let ((.def_134 (not .def_133))) (let ((.def_135 (=> xa1 .def_134))) (let ((.def_136 (and .def_135 .def_132 .def_129 .def_126))) (let ((.def_137 (or xa1 xa2 xa3 xa4 xa5))) (let ((.def_138 (and .def_137 .def_136))) (let ((.def_139 (and .def_138 .def_124 .def_110 .def_96 .def_82 .def_69 .def_55 .def_41 .def_27 .def_13))) .def_139)))))))))))))))))))))))))))))))))))))))))))))))))))))))))))))))))))))))))))))))))))))))))))))))))))))))))))))))))))))))))))))))))))))))))))))

(assert (! (or xa1 xa2) :named A))
(assert (! (or xb2 xb4) :named B))
(assert (! xc1 :named C))
(assert (! (or xd2 xd4) :named D))

(check-sat)
(get-unsat-core)


(exit)
